Traveling Salesman Problem/TSP_generados/Aleatorio1620390978_11.tsp
NAME: Aleatorio1620390978_11.tsp
COMMENT: Randomly generated scenario
TYPE: TSP
DIMENSION: 11
EDGE_WEIGHT_TYPE: ATT
NODE_COORD_SECTION
1 45.9 3.44
2 21.14 33.38
3 34.25 44.21
4 2.81 15.44
5 26.89 42.57
6 28.11 29.24
7 15.6 0.37
8 4.41 8.34
9 23.53 25.8
10 3.99 29.47
11 33.86 26.52
