Traveling Salesman Problem/TSP_generados/Aleatorio1620390978_11.opt.tour
NAME: Aleatorio1620390978_11.opt.tour
COMMENT: Optimal solution for Aleatorio1620390978_11 (159.81703273200446)
TYPE: TOUR
DIMENSION: 11
TOUR_SECTION
1 7 8 4 10 2 5 3 6 9 11
-1
EOF
